SPARKNaCl/why3-cvc5/sparknacl-utils.adb_165_10_assert2_1.smt2
;; produced by cvc5.drv ;;
(set-logic ALL)
(set-info :smt-lib-version 2.6)
;;; generated by SMT-LIB2 driver
;;; SMT-LIB2 driver: bit-vectors, common part
;;; SMT-LIB2: integer arithmetic
;; "pow2"
(declare-fun pow2 (Int) Int)

(declare-const two_power_size_minus_one Int)

;; "two_power_size_minus_one_val"
(assert (= two_power_size_minus_one (pow2 (- 32 1))))

;; "min"
(define-fun min ((x Int) (y Int)) Int
  (ite (<= x y) x y))

;; "max"
(define-fun max ((x Int) (y Int)) Int
  (ite (<= x y) y x))

;; "Min_r"
(assert (forall ((x Int) (y Int)) (=> (<= y x) (= (min x y) y))))

;; "Max_l"
(assert (forall ((x Int) (y Int)) (=> (<= y x) (= (max x y) x))))

;; "Min_comm"
(assert (forall ((x Int) (y Int)) (= (min x y) (min y x))))

;; "Max_comm"
(assert (forall ((x Int) (y Int)) (= (max x y) (max y x))))

;; "Min_assoc"
(assert
  (forall ((x Int) (y Int) (z Int)) (= (min (min x y) z) (min x (min y z)))))

;; "Max_assoc"
(assert
  (forall ((x Int) (y Int) (z Int)) (= (max (max x y) z) (max x (max y z)))))

;; "uc_of_int"
(define-fun uc_of_int ((x Int)) (_ BitVec 32)
  (ite (<= 0 x) ((_ int2bv 32) x) (bvneg ((_ int2bv 32) (- x)))))

;; "uc_to_int"
(define-fun uc_to_int ((x (_ BitVec 32))) Int
  (ite (= (bvult x ((_ int2bv 32) two_power_size_minus_one)) true)
    (bv2nat x)
    (- (bv2nat (bvneg x)))))

;; "to_u32__function_guard"
(declare-fun to_u32__function_guard ((_ BitVec 32)
  Int) Bool)

;; "to_i32__function_guard"
(declare-fun to_i32__function_guard (Int
  (_ BitVec 32)) Bool)

(declare-const mask (_ BitVec 32))

;; "in_range"
(define-fun in_range ((x Int)) Bool
  (and (<= (- 2147483648) x) (<= x 2147483647)))

;; Goal "def'vc"
;; File "sparknacl-utils.adb", line 70, characters 0-0
(assert
  (not
  (forall ((p Int) (q Int))
    (=>
      (in_range p)
      (=>
        (in_range q)
        (=>
          (or (= mask #x00000000) (= mask #xFFFFFFFF))
          (=>
            (to_u32__function_guard (uc_of_int p) p)
            (=>
              (forall ((temp___872 (_ BitVec 32)))
                (to_i32__function_guard (uc_to_int temp___872) temp___872))
              (=>
                (= (let ((temp___872 (uc_of_int p))) (uc_to_int temp___872)) p)
                (=>
                  (to_u32__function_guard (uc_of_int q) q)
                  (=>
                    (forall ((temp___876 (_ BitVec 32)))
                      (to_i32__function_guard
                        (uc_to_int temp___876)
                        temp___876))
                    (=>
                      (= (let ((temp___876 (uc_of_int q)))
                           (uc_to_int temp___876)) q)
                      (let ((o (uc_of_int q)))
                        (=>
                          (to_u32__function_guard o q)
                          (let ((o1 (uc_of_int p)))
                            (=>
                              (to_u32__function_guard o1 p)
                              (forall ((t (_ BitVec 32)))
                                (=>
                                  (= t (bvand mask (bvxor o1 o)))
                                  (=> (= mask #x00000000) (= t #x00000000))))))))))))))))))))

(check-sat)
